data/instances/vrp_files/train_12.vrp
NAME : 12
COMMENT : Generated instance No. 12
TYPE : CVRP
DIMENSION : 21
EDGE_WEIGHT_TYPE : EUC_2D
CAPACITY : 30
NODE_COORD_SECTION
 1 232 899
 2 63 989
 3 322 809
 4 254 681
 5 760 595
 6 471 411
 7 348 929
 8 830 965
 9 124 730
 10 938 181
 11 66 741
 12 574 841
 13 139 795
 14 201 163
 15 164 814
 16 665 523
 17 358 877
 18 392 816
 19 439 376
 20 462 301
 21 747 502
DEMAND_SECTION
1 0
2 7
3 2
4 5
5 8
6 8
7 3
8 7
9 3
10 6
11 6
12 3
13 7
14 3
15 8
16 10
17 4
18 1
19 4
20 7
21 4
DEPOT_SECTION
 1
 -1
EOF